# Solution for model r10_t27_m5_0
# Finished Task: 27 / 27
# Makespan: 762.0, Total Distance: 1597.0, Total Time: 1.3178
# R O S F
0 0 26 0.0 0.0
1 1 10 0.0 0.0
2 2 14 0.0 0.0
3 3 15 0.0 0.0
4 4 19 0.0 0.0
5 5 13 0.0 0.0
6 6 22 0.0 0.0
7 7 27 0.0 0.0
8 8 34 0.0 0.0
9 9 12 0.0 0.0
10 1 11 181.0 215.0
11 1 16 299.0 325.0
12 9 -1 359.0 389.0
13 5 20 90.0 115.0
14 2 17 183.0 217.0
15 3 24 162.0 187.0
16 1 23 431.0 468.0
17 2 21 247.0 276.0
18 1 -1 723.0 762.0
19 4 29 204.0 232.0
20 5 31 249.0 285.0
21 2 28 385.0 421.0
22 6 30 257.0 287.0
23 1 18 541.0 572.0
24 3 25 291.0 313.0
25 3 35 444.0 465.0
26 0 36 330.0 359.0
27 7 33 269.0 298.0
28 2 -1 535.0 568.0
29 4 -1 486.0 524.0
30 6 32 310.0 332.0
31 5 -1 536.0 573.0
32 6 -1 498.0 526.0
33 7 -1 374.0 397.0
34 8 -1 373.0 402.0
35 3 -1 648.0 683.0
36 0 -1 695.0 723.0
